c FILE: i160-333

c SOURCE: From steinlib

c DESCRIPTION: Steinlib instance with 160 nodes and 320 edges.

p edge 160 320
e 1 13
e 1 37
e 1 109
e 1 147
e 1 148
e 2 121
e 2 140
e 2 153
e 3 68
e 4 64
e 4 79
e 4 83
e 4 110
e 4 147
e 4 154
e 5 29
e 5 95
e 5 153
e 6 18
e 6 37
e 6 82
e 6 99
e 6 118
e 6 159
e 7 53
e 7 81
e 7 98
e 7 105
e 7 141
e 8 13
e 8 30
e 8 39
e 9 17
e 9 144
e 10 73
e 10 109
e 10 133
e 11 106
e 11 108
e 11 117
e 11 125
e 11 141
e 12 15
e 12 62
e 12 86
e 12 87
e 12 106
e 12 110
e 13 137
e 14 20
e 14 64
e 14 115
e 14 124
e 15 103
e 15 155
e 16 29
e 16 53
e 16 58
e 16 136
e 17 134
e 17 146
e 17 150
e 17 151
e 17 156
e 18 21
e 18 120
e 18 121
e 19 35
e 19 69
e 19 83
e 19 100
e 19 107
e 19 115
e 19 128
e 19 142
e 20 44
e 20 50
e 20 75
e 20 156
e 21 108
e 22 59
e 22 62
e 22 66
e 22 112
e 23 31
e 23 69
e 23 85
e 23 94
e 23 105
e 23 106
e 23 109
e 23 146
e 23 149
e 24 47
e 24 53
e 24 78
e 24 86
e 24 120
e 24 127
e 24 147
e 25 37
e 25 97
e 25 100
e 26 36
e 26 51
e 26 84
e 26 97
e 26 141
e 27 53
e 27 112
e 27 125
e 27 131
e 28 76
e 28 86
e 28 88
e 29 140
e 31 145
e 32 37
e 32 90
e 32 115
e 33 38
e 33 54
e 33 101
e 34 112
e 35 40
e 35 64
e 36 51
e 36 86
e 36 92
e 37 50
e 37 58
e 37 112
e 37 119
e 37 140
e 37 150
e 38 53
e 39 40
e 39 109
e 39 154
e 39 156
e 40 47
e 40 124
e 41 51
e 41 115
e 41 116
e 41 136
e 42 43
e 42 110
e 42 118
e 43 45
e 43 145
e 44 77
e 44 78
e 44 98
e 44 140
e 44 144
e 45 89
e 45 112
e 45 118
e 46 67
e 46 124
e 46 129
e 46 132
e 47 56
e 47 91
e 47 110
e 48 71
e 49 79
e 49 122
e 50 106
e 50 152
e 51 134
e 51 139
e 52 102
e 53 66
e 53 94
e 53 121
e 53 136
e 54 57
e 54 58
e 54 106
e 55 68
e 55 94
e 55 119
e 55 155
e 56 143
e 57 69
e 57 82
e 57 84
e 57 91
e 57 108
e 57 121
e 58 99
e 58 126
e 59 91
e 59 93
e 60 68
e 60 104
e 61 79
e 61 80
e 61 146
e 62 96
e 62 104
e 62 151
e 63 72
e 63 78
e 63 104
e 63 129
e 64 112
e 64 123
e 64 139
e 65 72
e 65 86
e 66 159
e 67 90
e 67 120
e 67 152
e 68 99
e 68 153
e 70 72
e 70 155
e 71 80
e 71 110
e 71 143
e 73 114
e 73 123
e 73 125
e 73 153
e 74 83
e 74 130
e 76 81
e 77 117
e 77 154
e 78 105
e 78 152
e 79 113
e 79 116
e 79 120
e 79 154
e 80 127
e 83 106
e 83 118
e 84 114
e 86 104
e 86 151
e 87 119
e 87 151
e 87 156
e 88 145
e 89 96
e 89 113
e 89 115
e 89 119
e 90 100
e 91 103
e 93 109
e 93 148
e 94 101
e 94 137
e 94 138
e 94 149
e 95 96
e 95 129
e 96 108
e 96 155
e 97 101
e 97 154
e 99 155
e 100 122
e 100 124
e 100 126
e 100 145
e 100 147
e 100 155
e 102 104
e 102 148
e 104 125
e 105 114
e 105 142
e 106 157
e 107 127
e 108 121
e 108 144
e 108 147
e 109 133
e 109 159
e 110 157
e 111 155
e 112 146
e 112 154
e 113 117
e 113 125
e 114 136
e 114 157
e 116 144
e 120 145
e 121 127
e 121 154
e 122 148
e 122 149
e 124 133
e 125 128
e 125 144
e 125 147
e 125 148
e 125 154
e 129 143
e 129 149
e 130 139
e 130 153
e 131 141
e 132 151
e 132 152
e 135 160
e 139 158
e 143 152
e 145 153
e 146 158
e 146 160
e 147 149
